100 45696

 506 348
367 190
144 505
885 191
69 508
99 369
396 409
25 824
948 929
891 934
469 117
484 134
565 58
151 556
144 685
569 672
39 173
109 829
693 815
42 149
186 80
935 886
398 213
223 203
634 764
133 229
163 676
215 227
733 659
235 532
843 441
658 402
751 47
588 233
9 305
74 526
954 143
492 415
913 513
253 373
230 566
519 886
174 259
653 656
168 471
170 953
393 971
946 12
795 330
634 736
194 784
517 968
29 358
165 972
422 408
339 668
648 373
496 8
365 122
833 348
342 676
500 90
657 648
511 698
327 316
217 178
301 540
132 732
804 869
70 41
252 740
415 704
787 923
445 502
876 959
182 145
167 201
91 929
714 724
858 461
531 732
39 752
126 925
451 909
173 558
653 547
754 253
220 390
638 594
58 883
660 256
476 709
456 815
829 921
895 450
361 10
935 824
1 798
387 242
973 251
